param n := 120;
param c := 3000
param : V : p w :=
   0	 383	 373
   1	 277	 267
   2	 370	 360
   3	 442	 432
   4	 289	 279
   5	 299	 289
   6	 472	 462
   7	 273	 263
   8	 285	 275
   9	 490	 480
  10	 264	 254
  11	 276	 266
  12	 498	 488
  13	 262	 252
  14	 270	 260
  15	 494	 484
  16	 265	 255
  17	 271	 261
  18	 424	 414
  19	 275	 265
  20	 331	 321
  21	 474	 464
  22	 276	 266
  23	 280	 270
  24	 380	 370
  25	 290	 280
  26	 360	 350
  27	 462	 452
  28	 282	 272
  29	 286	 276
  30	 456	 446
  31	 279	 269
  32	 295	 285
  33	 457	 447
  34	 277	 267
  35	 296	 286
  36	 440	 430
  37	 266	 256
  38	 324	 314
  39	 475	 465
  40	 273	 263
  41	 282	 272
  42	 483	 473
  43	 269	 259
  44	 278	 268
  45	 419	 409
  46	 298	 288
  47	 313	 303
  48	 509	 499
  49	 260	 250
  50	 261	 251
  51	 493	 483
  52	 262	 252
  53	 275	 265
  54	 394	 384
  55	 293	 283
  56	 343	 333
  57	 494	 484
  58	 261	 251
  59	 275	 265
  60	 491	 481
  61	 267	 257
  62	 272	 262
  63	 411	 401
  64	 308	 298
  65	 311	 301
  66	 406	 396
  67	 299	 289
  68	 325	 315
  69	 392	 382
  70	 260	 250
  71	 378	 368
  72	 420	 410
  73	 266	 256
  74	 344	 334
  75	 507	 497
  76	 260	 250
  77	 263	 253
  78	 369	 359
  79	 327	 317
  80	 334	 324
  81	 434	 424
  82	 261	 251
  83	 335	 325
  84	 367	 357
  85	 316	 306
  86	 347	 337
  87	 406	 396
  88	 264	 254
  89	 360	 350
  90	 479	 469
  91	 268	 258
  92	 283	 273
  93	 401	 391
  94	 284	 274
  95	 345	 335
  96	 436	 426
  97	 288	 278
  98	 306	 296
  99	 444	 434
 100	 278	 268
 101	 308	 298
 102	 501	 491
 103	 261	 251
 104	 268	 258
 105	 470	 460
 106	 271	 261
 107	 289	 279
 108	 413	 403
 109	 299	 289
 110	 318	 308
 111	 446	 436
 112	 276	 266
 113	 308	 298
 114	 360	 350
 115	 332	 322
 116	 338	 328
 117	 429	 419
 118	 279	 269
 119	 322	 312
;

set E :=
   0	   1
   0	   4
   0	   6
   0	  12
   0	  13
   0	  14
   0	  16
   0	  17
   0	  18
   0	  20
   0	  23
   0	  24
   0	  26
   0	  28
   0	  33
   0	  34
   0	  35
   0	  37
   0	  39
   0	  44
   0	  45
   0	  50
   0	  51
   0	  52
   0	  55
   0	  59
   0	  62
   0	  64
   0	  70
   0	  71
   0	  73
   0	  74
   0	  77
   0	  79
   0	  80
   0	  82
   0	  87
   0	  89
   0	  90
   0	  92
   0	  93
   0	  96
   0	  98
   0	 100
   0	 101
   0	 103
   0	 105
   0	 107
   0	 108
   0	 113
   0	 114
   0	 118
   0	 119
   1	   2
   1	   6
   1	   9
   1	  10
   1	  13
   1	  14
   1	  15
   1	  16
   1	  18
   1	  20
   1	  22
   1	  23
   1	  24
   1	  25
   1	  26
   1	  28
   1	  32
   1	  33
   1	  35
   1	  41
   1	  44
   1	  45
   1	  46
   1	  48
   1	  50
   1	  53
   1	  55
   1	  57
   1	  59
   1	  61
   1	  62
   1	  64
   1	  67
   1	  68
   1	  69
   1	  70
   1	  72
   1	  74
   1	  81
   1	  82
   1	  85
   1	  87
   1	  91
   1	  93
   1	  94
   1	  95
   1	  96
   1	  99
   1	 101
   1	 104
   1	 108
   1	 111
   1	 112
   1	 113
   1	 115
   1	 117
   1	 118
   1	 119
   2	   3
   2	   4
   2	   6
   2	   7
   2	  10
   2	  15
   2	  17
   2	  18
   2	  23
   2	  25
   2	  28
   2	  32
   2	  33
   2	  34
   2	  37
   2	  39
   2	  41
   2	  42
   2	  43
   2	  44
   2	  45
   2	  46
   2	  47
   2	  48
   2	  49
   2	  51
   2	  52
   2	  54
   2	  55
   2	  56
   2	  58
   2	  59
   2	  60
   2	  64
   2	  65
   2	  66
   2	  67
   2	  68
   2	  73
   2	  75
   2	  77
   2	  78
   2	  80
   2	  81
   2	  82
   2	  85
   2	  88
   2	  89
   2	  90
   2	  91
   2	  92
   2	  94
   2	  98
   2	 100
   2	 101
   2	 102
   2	 104
   2	 108
   2	 112
   2	 113
   2	 114
   2	 115
   2	 116
   2	 117
   2	 119
   3	   4
   3	   6
   3	   7
   3	   8
   3	   9
   3	  10
   3	  11
   3	  13
   3	  14
   3	  17
   3	  18
   3	  19
   3	  21
   3	  23
   3	  24
   3	  27
   3	  30
   3	  35
   3	  36
   3	  39
   3	  43
   3	  44
   3	  46
   3	  48
   3	  49
   3	  51
   3	  52
   3	  53
   3	  55
   3	  57
   3	  59
   3	  60
   3	  64
   3	  65
   3	  66
   3	  69
   3	  70
   3	  71
   3	  73
   3	  74
   3	  75
   3	  76
   3	  78
   3	  79
   3	  80
   3	  81
   3	  82
   3	  84
   3	  85
   3	  89
   3	  90
   3	  92
   3	  93
   3	 101
   3	 103
   3	 104
   3	 105
   3	 110
   3	 111
   3	 114
   3	 117
   3	 119
   4	   9
   4	  10
   4	  11
   4	  12
   4	  13
   4	  14
   4	  16
   4	  18
   4	  19
   4	  21
   4	  22
   4	  26
   4	  27
   4	  30
   4	  31
   4	  32
   4	  33
   4	  34
   4	  35
   4	  40
   4	  41
   4	  43
   4	  45
   4	  47
   4	  49
   4	  52
   4	  57
   4	  62
   4	  63
   4	  68
   4	  70
   4	  71
   4	  72
   4	  73
   4	  75
   4	  76
   4	  77
   4	  79
   4	  80
   4	  84
   4	  86
   4	  90
   4	  91
   4	  92
   4	  93
   4	  95
   4	  96
   4	  97
   4	  99
   4	 101
   4	 114
   4	 115
   4	 116
   4	 117
   5	   6
   5	   7
   5	   9
   5	  12
   5	  13
   5	  15
   5	  17
   5	  18
   5	  19
   5	  20
   5	  21
   5	  23
   5	  24
   5	  25
   5	  26
   5	  27
   5	  30
   5	  31
   5	  34
   5	  35
   5	  36
   5	  37
   5	  39
   5	  40
   5	  41
   5	  42
   5	  43
   5	  44
   5	  45
   5	  46
   5	  47
   5	  49
   5	  51
   5	  53
   5	  54
   5	  55
   5	  58
   5	  60
   5	  63
   5	  65
   5	  69
   5	  70
   5	  71
   5	  77
   5	  79
   5	  80
   5	  81
   5	  82
   5	  84
   5	  85
   5	  87
   5	  88
   5	  90
   5	  91
   5	  92
   5	  97
   5	  98
   5	 102
   5	 103
   5	 105
   5	 107
   5	 109
   5	 110
   5	 113
   5	 115
   5	 116
   5	 118
   6	   7
   6	   9
   6	  10
   6	  11
   6	  13
   6	  14
   6	  15
   6	  16
   6	  18
   6	  19
   6	  21
   6	  22
   6	  23
   6	  24
   6	  27
   6	  29
   6	  30
   6	  32
   6	  34
   6	  36
   6	  37
   6	  40
   6	  41
   6	  45
   6	  47
   6	  48
   6	  49
   6	  54
   6	  55
   6	  57
   6	  58
   6	  59
   6	  61
   6	  62
   6	  63
   6	  67
   6	  68
   6	  70
   6	  71
   6	  73
   6	  75
   6	  77
   6	  78
   6	  80
   6	  82
   6	  84
   6	  88
   6	  90
   6	  91
   6	  92
   6	  93
   6	  98
   6	  99
   6	 101
   6	 104
   6	 105
   6	 106
   6	 107
   6	 108
   6	 110
   6	 111
   6	 115
   6	 118
   7	  11
   7	  14
   7	  16
   7	  20
   7	  23
   7	  29
   7	  32
   7	  33
   7	  34
   7	  35
   7	  37
   7	  38
   7	  40
   7	  41
   7	  42
   7	  44
   7	  46
   7	  47
   7	  49
   7	  52
   7	  53
   7	  54
   7	  55
   7	  59
   7	  60
   7	  61
   7	  64
   7	  65
   7	  66
   7	  68
   7	  70
   7	  71
   7	  74
   7	  76
   7	  78
   7	  81
   7	  83
   7	  84
   7	  86
   7	  87
   7	  90
   7	  91
   7	  95
   7	  98
   7	 100
   7	 101
   7	 103
   7	 105
   7	 106
   7	 107
   7	 111
   7	 114
   7	 115
   7	 116
   7	 117
   7	 118
   8	  10
   8	  11
   8	  12
   8	  13
   8	  14
   8	  15
   8	  16
   8	  18
   8	  19
   8	  20
   8	  22
   8	  24
   8	  25
   8	  26
   8	  27
   8	  28
   8	  29
   8	  32
   8	  35
   8	  36
   8	  37
   8	  38
   8	  39
   8	  44
   8	  45
   8	  55
   8	  56
   8	  57
   8	  58
   8	  60
   8	  61
   8	  65
   8	  67
   8	  68
   8	  69
   8	  72
   8	  78
   8	  79
   8	  80
   8	  81
   8	  84
   8	  85
   8	  86
   8	  88
   8	  89
   8	  90
   8	  91
   8	  92
   8	  93
   8	  98
   8	  99
   8	 100
   8	 102
   8	 104
   8	 106
   8	 107
   8	 110
   8	 111
   8	 112
   8	 115
   8	 119
   9	  12
   9	  15
   9	  16
   9	  18
   9	  21
   9	  23
   9	  27
   9	  32
   9	  35
   9	  36
   9	  40
   9	  44
   9	  45
   9	  49
   9	  52
   9	  54
   9	  57
   9	  58
   9	  59
   9	  60
   9	  62
   9	  68
   9	  74
   9	  75
   9	  76
   9	  77
   9	  78
   9	  79
   9	  80
   9	  83
   9	  84
   9	  89
   9	  91
   9	  93
   9	  94
   9	  96
   9	  97
   9	  98
   9	  99
   9	 100
   9	 101
   9	 102
   9	 105
   9	 107
   9	 108
   9	 109
   9	 110
   9	 111
   9	 112
   9	 116
  10	  12
  10	  14
  10	  16
  10	  21
  10	  22
  10	  23
  10	  24
  10	  25
  10	  26
  10	  35
  10	  37
  10	  38
  10	  39
  10	  42
  10	  43
  10	  44
  10	  45
  10	  46
  10	  48
  10	  49
  10	  50
  10	  51
  10	  54
  10	  55
  10	  57
  10	  58
  10	  61
  10	  62
  10	  63
  10	  65
  10	  67
  10	  68
  10	  72
  10	  73
  10	  77
  10	  79
  10	  81
  10	  82
  10	  85
  10	  86
  10	  87
  10	  90
  10	  92
  10	  94
  10	  95
  10	  98
  10	 101
  10	 105
  10	 106
  10	 109
  10	 111
  10	 112
  10	 113
  10	 117
  11	  13
  11	  16
  11	  17
  11	  18
  11	  19
  11	  20
  11	  21
  11	  26
  11	  27
  11	  28
  11	  29
  11	  30
  11	  32
  11	  33
  11	  35
  11	  38
  11	  39
  11	  41
  11	  42
  11	  44
  11	  48
  11	  50
  11	  51
  11	  52
  11	  53
  11	  54
  11	  55
  11	  58
  11	  60
  11	  61
  11	  64
  11	  67
  11	  69
  11	  70
  11	  71
  11	  74
  11	  75
  11	  77
  11	  78
  11	  79
  11	  80
  11	  81
  11	  82
  11	  84
  11	  86
  11	  88
  11	  89
  11	  93
  11	  94
  11	  95
  11	  98
  11	  99
  11	 100
  11	 101
  11	 102
  11	 103
  11	 104
  11	 107
  11	 108
  11	 110
  11	 114
  11	 117
  11	 119
  12	  13
  12	  16
  12	  17
  12	  19
  12	  20
  12	  21
  12	  22
  12	  23
  12	  24
  12	  29
  12	  30
  12	  32
  12	  34
  12	  35
  12	  36
  12	  37
  12	  38
  12	  41
  12	  42
  12	  43
  12	  46
  12	  49
  12	  52
  12	  53
  12	  54
  12	  56
  12	  61
  12	  62
  12	  64
  12	  71
  12	  74
  12	  76
  12	  79
  12	  80
  12	  82
  12	  85
  12	  86
  12	  89
  12	  91
  12	  92
  12	  97
  12	 101
  12	 105
  12	 106
  12	 108
  12	 113
  12	 114
  13	  15
  13	  21
  13	  24
  13	  26
  13	  27
  13	  28
  13	  30
  13	  35
  13	  36
  13	  39
  13	  43
  13	  45
  13	  47
  13	  50
  13	  54
  13	  58
  13	  60
  13	  61
  13	  62
  13	  65
  13	  67
  13	  68
  13	  70
  13	  71
  13	  73
  13	  75
  13	  77
  13	  78
  13	  79
  13	  81
  13	  82
  13	  85
  13	  86
  13	  87
  13	  88
  13	  92
  13	  94
  13	  95
  13	  96
  13	  97
  13	  99
  13	 102
  13	 103
  13	 105
  13	 108
  13	 109
  13	 111
  13	 112
  13	 114
  13	 115
  13	 118
  13	 119
  14	  17
  14	  18
  14	  19
  14	  20
  14	  21
  14	  22
  14	  24
  14	  26
  14	  27
  14	  30
  14	  33
  14	  36
  14	  37
  14	  38
  14	  40
  14	  42
  14	  43
  14	  46
  14	  51
  14	  53
  14	  54
  14	  55
  14	  59
  14	  60
  14	  61
  14	  62
  14	  63
  14	  67
  14	  68
  14	  70
  14	  76
  14	  77
  14	  78
  14	  79
  14	  80
  14	  85
  14	  86
  14	  88
  14	  89
  14	  97
  14	 102
  14	 105
  14	 106
  14	 107
  14	 109
  14	 111
  14	 116
  14	 117
  14	 118
  14	 119
  15	  16
  15	  19
  15	  20
  15	  21
  15	  23
  15	  24
  15	  26
  15	  29
  15	  30
  15	  31
  15	  37
  15	  38
  15	  39
  15	  41
  15	  42
  15	  45
  15	  46
  15	  47
  15	  48
  15	  49
  15	  50
  15	  51
  15	  53
  15	  54
  15	  55
  15	  57
  15	  58
  15	  59
  15	  60
  15	  61
  15	  64
  15	  65
  15	  68
  15	  69
  15	  77
  15	  78
  15	  79
  15	  80
  15	  83
  15	  84
  15	  85
  15	  88
  15	  90
  15	  91
  15	  92
  15	  95
  15	  99
  15	 103
  15	 104
  15	 107
  15	 110
  15	 111
  15	 112
  15	 113
  15	 114
  15	 115
  15	 116
  15	 117
  15	 118
  15	 119
  16	  23
  16	  24
  16	  31
  16	  32
  16	  33
  16	  35
  16	  36
  16	  41
  16	  42
  16	  43
  16	  47
  16	  49
  16	  50
  16	  53
  16	  54
  16	  56
  16	  58
  16	  60
  16	  71
  16	  72
  16	  75
  16	  76
  16	  80
  16	  82
  16	  84
  16	  87
  16	  91
  16	  92
  16	  93
  16	  97
  16	  98
  16	  99
  16	 102
  16	 105
  16	 106
  16	 110
  16	 113
  16	 115
  16	 116
  16	 119
  17	  19
  17	  20
  17	  21
  17	  23
  17	  24
  17	  26
  17	  27
  17	  28
  17	  29
  17	  30
  17	  32
  17	  33
  17	  35
  17	  36
  17	  39
  17	  41
  17	  42
  17	  49
  17	  50
  17	  52
  17	  53
  17	  55
  17	  57
  17	  58
  17	  60
  17	  61
  17	  63
  17	  64
  17	  65
  17	  66
  17	  68
  17	  70
  17	  74
  17	  76
  17	  77
  17	  78
  17	  80
  17	  82
  17	  83
  17	  84
  17	  86
  17	  87
  17	  89
  17	  90
  17	  91
  17	  92
  17	  93
  17	  97
  17	  99
  17	 100
  17	 103
  17	 105
  17	 107
  17	 110
  17	 111
  17	 114
  17	 117
  17	 118
  17	 119
  18	  20
  18	  23
  18	  24
  18	  28
  18	  30
  18	  32
  18	  33
  18	  35
  18	  36
  18	  38
  18	  39
  18	  40
  18	  41
  18	  43
  18	  47
  18	  48
  18	  49
  18	  53
  18	  55
  18	  56
  18	  59
  18	  61
  18	  62
  18	  65
  18	  67
  18	  68
  18	  73
  18	  74
  18	  79
  18	  82
  18	  83
  18	  85
  18	  86
  18	  87
  18	  89
  18	  90
  18	  91
  18	  93
  18	  95
  18	  96
  18	  97
  18	  99
  18	 100
  18	 106
  18	 109
  18	 111
  18	 114
  18	 116
  18	 117
  18	 119
  19	  22
  19	  23
  19	  26
  19	  28
  19	  31
  19	  34
  19	  37
  19	  38
  19	  39
  19	  41
  19	  42
  19	  43
  19	  44
  19	  45
  19	  46
  19	  48
  19	  49
  19	  52
  19	  53
  19	  54
  19	  57
  19	  62
  19	  63
  19	  64
  19	  72
  19	  73
  19	  75
  19	  76
  19	  77
  19	  78
  19	  80
  19	  86
  19	  88
  19	  90
  19	  93
  19	  96
  19	  98
  19	  99
  19	 101
  19	 102
  19	 103
  19	 104
  19	 105
  19	 106
  19	 109
  19	 113
  19	 115
  20	  21
  20	  22
  20	  24
  20	  27
  20	  31
  20	  34
  20	  40
  20	  41
  20	  42
  20	  44
  20	  45
  20	  46
  20	  50
  20	  54
  20	  58
  20	  62
  20	  63
  20	  64
  20	  65
  20	  67
  20	  69
  20	  70
  20	  72
  20	  73
  20	  75
  20	  83
  20	  85
  20	  86
  20	  89
  20	  92
  20	  93
  20	  94
  20	  95
  20	  96
  20	  97
  20	 103
  20	 104
  20	 106
  20	 108
  20	 110
  20	 112
  20	 114
  20	 115
  20	 119
  21	  24
  21	  28
  21	  37
  21	  39
  21	  40
  21	  41
  21	  42
  21	  44
  21	  45
  21	  50
  21	  51
  21	  52
  21	  57
  21	  63
  21	  64
  21	  65
  21	  72
  21	  73
  21	  77
  21	  79
  21	  80
  21	  81
  21	  84
  21	  85
  21	  88
  21	  90
  21	  92
  21	  93
  21	  94
  21	  98
  21	 100
  21	 103
  21	 104
  21	 105
  21	 107
  21	 109
  21	 111
  21	 112
  21	 113
  21	 114
  21	 116
  21	 117
  21	 118
  21	 119
  22	  23
  22	  28
  22	  30
  22	  31
  22	  39
  22	  42
  22	  44
  22	  46
  22	  50
  22	  51
  22	  54
  22	  57
  22	  65
  22	  67
  22	  71
  22	  74
  22	  75
  22	  76
  22	  79
  22	  80
  22	  81
  22	  83
  22	  86
  22	  87
  22	  88
  22	  90
  22	  93
  22	  95
  22	  96
  22	  97
  22	 101
  22	 102
  22	 105
  22	 106
  22	 107
  22	 108
  22	 111
  22	 112
  22	 114
  22	 117
  22	 118
  22	 119
  23	  24
  23	  27
  23	  28
  23	  29
  23	  31
  23	  32
  23	  33
  23	  36
  23	  37
  23	  39
  23	  41
  23	  44
  23	  45
  23	  46
  23	  50
  23	  51
  23	  55
  23	  57
  23	  58
  23	  59
  23	  60
  23	  63
  23	  64
  23	  65
  23	  66
  23	  67
  23	  73
  23	  74
  23	  75
  23	  76
  23	  80
  23	  83
  23	  84
  23	  86
  23	  89
  23	  90
  23	  91
  23	  94
  23	  99
  23	 102
  23	 104
  23	 106
  23	 107
  23	 108
  23	 112
  23	 114
  23	 117
  23	 118
  23	 119
  24	  25
  24	  27
  24	  28
  24	  31
  24	  34
  24	  35
  24	  36
  24	  37
  24	  38
  24	  39
  24	  40
  24	  41
  24	  44
  24	  45
  24	  47
  24	  49
  24	  51
  24	  54
  24	  55
  24	  56
  24	  57
  24	  58
  24	  60
  24	  61
  24	  64
  24	  65
  24	  66
  24	  67
  24	  68
  24	  70
  24	  73
  24	  74
  24	  75
  24	  76
  24	  77
  24	  82
  24	  83
  24	  86
  24	  88
  24	  89
  24	  90
  24	  95
  24	  96
  24	  97
  24	 104
  24	 107
  24	 108
  24	 110
  24	 113
  24	 117
  24	 119
  25	  26
  25	  32
  25	  35
  25	  38
  25	  44
  25	  46
  25	  50
  25	  56
  25	  57
  25	  63
  25	  64
  25	  66
  25	  68
  25	  69
  25	  72
  25	  75
  25	  76
  25	  77
  25	  82
  25	  83
  25	  84
  25	  91
  25	  97
  25	 102
  25	 103
  25	 104
  25	 107
  25	 109
  25	 112
  25	 113
  25	 114
  25	 116
  25	 118
  25	 119
  26	  28
  26	  29
  26	  30
  26	  31
  26	  33
  26	  34
  26	  35
  26	  37
  26	  38
  26	  39
  26	  41
  26	  42
  26	  43
  26	  47
  26	  48
  26	  51
  26	  52
  26	  54
  26	  55
  26	  56
  26	  58
  26	  59
  26	  66
  26	  67
  26	  69
  26	  71
  26	  72
  26	  73
  26	  76
  26	  77
  26	  78
  26	  79
  26	  81
  26	  83
  26	  85
  26	  86
  26	  87
  26	  90
  26	  92
  26	  93
  26	  94
  26	  96
  26	  99
  26	 100
  26	 104
  26	 105
  26	 106
  26	 110
  26	 111
  26	 114
  26	 115
  26	 118
  26	 119
  27	  28
  27	  30
  27	  31
  27	  34
  27	  36
  27	  37
  27	  38
  27	  39
  27	  40
  27	  43
  27	  46
  27	  49
  27	  51
  27	  52
  27	  54
  27	  55
  27	  56
  27	  58
  27	  60
  27	  61
  27	  64
  27	  66
  27	  67
  27	  69
  27	  70
  27	  72
  27	  73
  27	  75
  27	  77
  27	  80
  27	  88
  27	  90
  27	  91
  27	  92
  27	  93
  27	  94
  27	  95
  27	  98
  27	 100
  27	 102
  27	 103
  27	 104
  27	 106
  27	 107
  27	 108
  27	 112
  27	 113
  27	 115
  27	 116
  27	 117
  27	 118
  27	 119
  28	  29
  28	  30
  28	  32
  28	  34
  28	  38
  28	  39
  28	  40
  28	  41
  28	  42
  28	  44
  28	  45
  28	  46
  28	  50
  28	  54
  28	  55
  28	  57
  28	  59
  28	  60
  28	  63
  28	  65
  28	  67
  28	  69
  28	  70
  28	  71
  28	  75
  28	  78
  28	  80
  28	  83
  28	  85
  28	  86
  28	  87
  28	  89
  28	  90
  28	  91
  28	  93
  28	  95
  28	  96
  28	  98
  28	  99
  28	 100
  28	 102
  28	 103
  28	 105
  28	 108
  28	 111
  28	 112
  28	 113
  28	 117
  28	 119
  29	  35
  29	  36
  29	  38
  29	  39
  29	  40
  29	  41
  29	  42
  29	  46
  29	  47
  29	  52
  29	  53
  29	  56
  29	  57
  29	  59
  29	  61
  29	  62
  29	  64
  29	  66
  29	  68
  29	  72
  29	  73
  29	  75
  29	  76
  29	  78
  29	  81
  29	  82
  29	  84
  29	  85
  29	  88
  29	  89
  29	  92
  29	  94
  29	  96
  29	  98
  29	  99
  29	 101
  29	 102
  29	 103
  29	 106
  29	 107
  29	 108
  29	 109
  29	 111
  29	 112
  29	 117
  29	 118
  29	 119
  30	  31
  30	  32
  30	  33
  30	  36
  30	  37
  30	  41
  30	  42
  30	  43
  30	  44
  30	  47
  30	  48
  30	  49
  30	  52
  30	  53
  30	  55
  30	  56
  30	  57
  30	  58
  30	  60
  30	  61
  30	  63
  30	  64
  30	  65
  30	  68
  30	  72
  30	  73
  30	  78
  30	  81
  30	  82
  30	  84
  30	  86
  30	  88
  30	  90
  30	  91
  30	  94
  30	  97
  30	 101
  30	 103
  30	 107
  30	 108
  30	 111
  30	 112
  30	 116
  30	 117
  30	 118
  30	 119
  31	  34
  31	  35
  31	  36
  31	  37
  31	  40
  31	  42
  31	  43
  31	  45
  31	  49
  31	  51
  31	  52
  31	  55
  31	  56
  31	  57
  31	  58
  31	  60
  31	  62
  31	  63
  31	  64
  31	  66
  31	  68
  31	  70
  31	  72
  31	  74
  31	  78
  31	  79
  31	  80
  31	  83
  31	  84
  31	  86
  31	  89
  31	  92
  31	  93
  31	  94
  31	  95
  31	  96
  31	  97
  31	  99
  31	 100
  31	 101
  31	 102
  31	 103
  31	 104
  31	 106
  31	 108
  31	 111
  31	 114
  31	 115
  31	 118
  31	 119
  32	  33
  32	  35
  32	  39
  32	  44
  32	  45
  32	  48
  32	  49
  32	  50
  32	  51
  32	  55
  32	  57
  32	  60
  32	  65
  32	  66
  32	  70
  32	  71
  32	  75
  32	  77
  32	  79
  32	  81
  32	  82
  32	  83
  32	  84
  32	  87
  32	  96
  32	  97
  32	  98
  32	 101
  32	 113
  32	 114
  32	 115
  32	 116
  32	 118
  32	 119
  33	  34
  33	  36
  33	  37
  33	  38
  33	  40
  33	  41
  33	  48
  33	  50
  33	  51
  33	  54
  33	  56
  33	  59
  33	  60
  33	  61
  33	  62
  33	  63
  33	  71
  33	  72
  33	  76
  33	  77
  33	  82
  33	  83
  33	  84
  33	  85
  33	  86
  33	  88
  33	  91
  33	  96
  33	  97
  33	  98
  33	 100
  33	 101
  33	 104
  33	 105
  33	 108
  33	 109
  33	 110
  33	 113
  33	 116
  33	 117
  33	 118
  34	  35
  34	  37
  34	  38
  34	  41
  34	  43
  34	  45
  34	  46
  34	  47
  34	  48
  34	  50
  34	  53
  34	  54
  34	  55
  34	  56
  34	  57
  34	  58
  34	  64
  34	  65
  34	  69
  34	  70
  34	  73
  34	  75
  34	  76
  34	  77
  34	  78
  34	  79
  34	  80
  34	  81
  34	  82
  34	  84
  34	  85
  34	  88
  34	  89
  34	  90
  34	  94
  34	  95
  34	  96
  34	 105
  34	 106
  34	 110
  34	 111
  34	 113
  34	 115
  34	 116
  34	 118
  35	  36
  35	  37
  35	  39
  35	  40
  35	  41
  35	  42
  35	  43
  35	  46
  35	  47
  35	  49
  35	  50
  35	  52
  35	  55
  35	  57
  35	  60
  35	  63
  35	  64
  35	  65
  35	  68
  35	  72
  35	  73
  35	  74
  35	  77
  35	  78
  35	  79
  35	  80
  35	  81
  35	  85
  35	  86
  35	  91
  35	  93
  35	 100
  35	 102
  35	 103
  35	 104
  35	 105
  35	 106
  35	 108
  35	 110
  35	 111
  35	 112
  35	 113
  35	 115
  35	 117
  35	 118
  35	 119
  36	  37
  36	  42
  36	  45
  36	  46
  36	  47
  36	  49
  36	  50
  36	  52
  36	  54
  36	  55
  36	  56
  36	  59
  36	  60
  36	  62
  36	  65
  36	  66
  36	  67
  36	  71
  36	  72
  36	  75
  36	  76
  36	  80
  36	  81
  36	  83
  36	  84
  36	  85
  36	  88
  36	  91
  36	  93
  36	  95
  36	  96
  36	  97
  36	  98
  36	  99
  36	 100
  36	 101
  36	 103
  36	 104
  36	 105
  36	 107
  36	 108
  36	 111
  36	 112
  36	 116
  36	 118
  36	 119
  37	  41
  37	  42
  37	  47
  37	  48
  37	  49
  37	  53
  37	  54
  37	  55
  37	  56
  37	  58
  37	  60
  37	  62
  37	  64
  37	  65
  37	  67
  37	  72
  37	  73
  37	  75
  37	  80
  37	  81
  37	  83
  37	  84
  37	  85
  37	  88
  37	  90
  37	  93
  37	  94
  37	  96
  37	  98
  37	 100
  37	 104
  37	 108
  37	 109
  37	 115
  37	 116
  37	 118
  38	  40
  38	  42
  38	  45
  38	  46
  38	  48
  38	  50
  38	  51
  38	  53
  38	  55
  38	  56
  38	  58
  38	  60
  38	  61
  38	  62
  38	  63
  38	  65
  38	  66
  38	  67
  38	  69
  38	  71
  38	  72
  38	  75
  38	  76
  38	  77
  38	  78
  38	  80
  38	  83
  38	  84
  38	  85
  38	  88
  38	  89
  38	  91
  38	  92
  38	  93
  38	  95
  38	  98
  38	 100
  38	 103
  38	 104
  38	 106
  38	 107
  38	 112
  38	 113
  38	 114
  38	 115
  39	  41
  39	  42
  39	  43
  39	  45
  39	  47
  39	  49
  39	  50
  39	  51
  39	  52
  39	  55
  39	  56
  39	  58
  39	  60
  39	  64
  39	  66
  39	  67
  39	  68
  39	  73
  39	  76
  39	  77
  39	  79
  39	  80
  39	  85
  39	  86
  39	  87
  39	  88
  39	  89
  39	  90
  39	  92
  39	  93
  39	  94
  39	  95
  39	  98
  39	  99
  39	 105
  39	 109
  39	 111
  39	 112
  39	 116
  39	 119
  40	  41
  40	  43
  40	  45
  40	  48
  40	  49
  40	  51
  40	  53
  40	  54
  40	  55
  40	  56
  40	  57
  40	  58
  40	  59
  40	  60
  40	  61
  40	  62
  40	  65
  40	  66
  40	  68
  40	  69
  40	  70
  40	  73
  40	  75
  40	  76
  40	  78
  40	  80
  40	  81
  40	  82
  40	  84
  40	  88
  40	  89
  40	  90
  40	  92
  40	  93
  40	  96
  40	  97
  40	  98
  40	  99
  40	 101
  40	 102
  40	 103
  40	 107
  40	 110
  40	 111
  40	 112
  40	 115
  40	 117
  41	  43
  41	  46
  41	  47
  41	  48
  41	  49
  41	  52
  41	  53
  41	  54
  41	  55
  41	  57
  41	  60
  41	  64
  41	  66
  41	  68
  41	  70
  41	  71
  41	  73
  41	  75
  41	  80
  41	  81
  41	  82
  41	  85
  41	  86
  41	  87
  41	  89
  41	  90
  41	  91
  41	  93
  41	  95
  41	  96
  41	  97
  41	 103
  41	 106
  41	 107
  41	 108
  41	 109
  41	 110
  41	 112
  41	 114
  41	 115
  41	 116
  41	 119
  42	  43
  42	  46
  42	  47
  42	  48
  42	  50
  42	  54
  42	  55
  42	  56
  42	  59
  42	  64
  42	  65
  42	  66
  42	  67
  42	  68
  42	  69
  42	  70
  42	  71
  42	  72
  42	  74
  42	  76
  42	  77
  42	  80
  42	  81
  42	  92
  42	  93
  42	  94
  42	  95
  42	  96
  42	 100
  42	 102
  42	 106
  42	 107
  42	 108
  42	 109
  42	 113
  42	 115
  42	 117
  43	  46
  43	  48
  43	  54
  43	  59
  43	  61
  43	  63
  43	  68
  43	  72
  43	  73
  43	  74
  43	  75
  43	  77
  43	  78
  43	  80
  43	  82
  43	  85
  43	  86
  43	  88
  43	  89
  43	  90
  43	  95
  43	  96
  43	 101
  43	 102
  43	 104
  43	 106
  43	 108
  43	 110
  43	 112
  43	 115
  43	 116
  43	 117
  43	 119
  44	  45
  44	  47
  44	  48
  44	  49
  44	  54
  44	  56
  44	  58
  44	  60
  44	  64
  44	  65
  44	  66
  44	  67
  44	  71
  44	  72
  44	  73
  44	  74
  44	  76
  44	  78
  44	  80
  44	  82
  44	  85
  44	  88
  44	  89
  44	  92
  44	  93
  44	  94
  44	  95
  44	  98
  44	 100
  44	 102
  44	 103
  44	 104
  44	 108
  44	 109
  44	 110
  44	 116
  44	 117
  44	 118
  44	 119
  45	  50
  45	  54
  45	  55
  45	  56
  45	  57
  45	  59
  45	  60
  45	  61
  45	  63
  45	  66
  45	  68
  45	  69
  45	  70
  45	  71
  45	  72
  45	  74
  45	  75
  45	  78
  45	  81
  45	  84
  45	  85
  45	  89
  45	  92
  45	  93
  45	  94
  45	  98
  45	 102
  45	 103
  45	 104
  45	 105
  45	 106
  45	 107
  45	 110
  45	 112
  45	 113
  45	 114
  45	 115
  45	 117
  45	 118
  46	  48
  46	  49
  46	  52
  46	  54
  46	  55
  46	  56
  46	  57
  46	  58
  46	  59
  46	  64
  46	  65
  46	  66
  46	  68
  46	  69
  46	  77
  46	  78
  46	  80
  46	  83
  46	  84
  46	  87
  46	  90
  46	  93
  46	  96
  46	 104
  46	 109
  46	 110
  46	 111
  46	 113
  46	 114
  46	 115
  46	 117
  46	 118
  46	 119
  47	  49
  47	  50
  47	  52
  47	  53
  47	  54
  47	  55
  47	  59
  47	  60
  47	  62
  47	  65
  47	  66
  47	  67
  47	  70
  47	  72
  47	  79
  47	  80
  47	  81
  47	  82
  47	  83
  47	  89
  47	  91
  47	  92
  47	  93
  47	  95
  47	  97
  47	  98
  47	 100
  47	 101
  47	 102
  47	 112
  47	 113
  47	 114
  47	 116
  47	 118
  48	  50
  48	  51
  48	  52
  48	  53
  48	  54
  48	  56
  48	  57
  48	  59
  48	  61
  48	  62
  48	  63
  48	  64
  48	  67
  48	  71
  48	  72
  48	  73
  48	  76
  48	  77
  48	  78
  48	  82
  48	  86
  48	  87
  48	  91
  48	  93
  48	  95
  48	  96
  48	  98
  48	  99
  48	 100
  48	 102
  48	 105
  48	 107
  48	 108
  48	 109
  48	 111
  48	 113
  48	 114
  48	 119
  49	  50
  49	  51
  49	  52
  49	  55
  49	  56
  49	  57
  49	  58
  49	  59
  49	  62
  49	  67
  49	  68
  49	  69
  49	  74
  49	  75
  49	  77
  49	  78
  49	  81
  49	  83
  49	  85
  49	  87
  49	  89
  49	  92
  49	  93
  49	  99
  49	 100
  49	 101
  49	 102
  49	 103
  49	 105
  49	 106
  49	 111
  49	 114
  49	 116
  49	 117
  49	 119
  50	  51
  50	  53
  50	  55
  50	  57
  50	  58
  50	  59
  50	  60
  50	  62
  50	  64
  50	  65
  50	  69
  50	  70
  50	  71
  50	  73
  50	  77
  50	  78
  50	  79
  50	  81
  50	  84
  50	  86
  50	  87
  50	  89
  50	  91
  50	  93
  50	  96
  50	  97
  50	  99
  50	 100
  50	 101
  50	 107
  50	 109
  50	 111
  50	 112
  50	 113
  50	 114
  50	 115
  50	 117
  50	 118
  50	 119
  51	  52
  51	  54
  51	  55
  51	  56
  51	  58
  51	  59
  51	  60
  51	  61
  51	  62
  51	  63
  51	  65
  51	  66
  51	  67
  51	  68
  51	  70
  51	  72
  51	  73
  51	  76
  51	  77
  51	  81
  51	  84
  51	  88
  51	  89
  51	  90
  51	  92
  51	  94
  51	  95
  51	  96
  51	 100
  51	 101
  51	 102
  51	 104
  51	 105
  51	 109
  51	 110
  51	 111
  51	 115
  51	 116
  52	  54
  52	  57
  52	  58
  52	  59
  52	  60
  52	  63
  52	  64
  52	  65
  52	  66
  52	  68
  52	  72
  52	  73
  52	  75
  52	  76
  52	  77
  52	  79
  52	  80
  52	  81
  52	  86
  52	  90
  52	  94
  52	  96
  52	  97
  52	 100
  52	 101
  52	 103
  52	 104
  52	 105
  52	 108
  52	 109
  52	 110
  52	 112
  52	 114
  53	  54
  53	  56
  53	  58
  53	  61
  53	  63
  53	  65
  53	  66
  53	  68
  53	  69
  53	  72
  53	  74
  53	  75
  53	  76
  53	  83
  53	  84
  53	  87
  53	  89
  53	  90
  53	  94
  53	  96
  53	  98
  53	 100
  53	 105
  53	 112
  53	 116
  53	 117
  53	 118
  53	 119
  54	  55
  54	  57
  54	  59
  54	  60
  54	  62
  54	  63
  54	  69
  54	  70
  54	  71
  54	  73
  54	  74
  54	  76
  54	  78
  54	  83
  54	  85
  54	  86
  54	  88
  54	  89
  54	  92
  54	  94
  54	  96
  54	 101
  54	 102
  54	 104
  54	 109
  54	 110
  54	 111
  54	 114
  54	 116
  54	 118
  54	 119
  55	  56
  55	  57
  55	  59
  55	  60
  55	  61
  55	  65
  55	  66
  55	  67
  55	  68
  55	  69
  55	  71
  55	  73
  55	  76
  55	  79
  55	  83
  55	  86
  55	  90
  55	  92
  55	  94
  55	 101
  55	 105
  55	 106
  55	 108
  55	 109
  55	 111
  55	 113
  55	 116
  55	 117
  55	 119
  56	  57
  56	  59
  56	  60
  56	  61
  56	  62
  56	  65
  56	  66
  56	  68
  56	  69
  56	  70
  56	  71
  56	  72
  56	  73
  56	  74
  56	  75
  56	  76
  56	  77
  56	  82
  56	  84
  56	  85
  56	  89
  56	  90
  56	  96
  56	  98
  56	  99
  56	 100
  56	 102
  56	 103
  56	 106
  56	 109
  56	 111
  56	 112
  56	 113
  56	 114
  56	 115
  56	 118
  56	 119
  57	  58
  57	  61
  57	  65
  57	  66
  57	  69
  57	  70
  57	  71
  57	  72
  57	  78
  57	  79
  57	  81
  57	  82
  57	  84
  57	  86
  57	  88
  57	  90
  57	  92
  57	  94
  57	  97
  57	 100
  57	 101
  57	 102
  57	 106
  57	 108
  57	 109
  57	 112
  57	 117
  58	  61
  58	  62
  58	  63
  58	  64
  58	  67
  58	  68
  58	  69
  58	  70
  58	  73
  58	  77
  58	  85
  58	  91
  58	  93
  58	  94
  58	  95
  58	  97
  58	  98
  58	  99
  58	 103
  58	 104
  58	 106
  58	 111
  58	 114
  58	 115
  58	 116
  58	 118
  59	  60
  59	  62
  59	  64
  59	  65
  59	  67
  59	  72
  59	  73
  59	  74
  59	  79
  59	  82
  59	  84
  59	  85
  59	  86
  59	  88
  59	  92
  59	  93
  59	  98
  59	 101
  59	 102
  59	 104
  59	 106
  59	 108
  59	 111
  59	 113
  59	 115
  59	 118
  60	  61
  60	  63
  60	  64
  60	  65
  60	  67
  60	  68
  60	  70
  60	  71
  60	  73
  60	  74
  60	  77
  60	  79
  60	  80
  60	  82
  60	  84
  60	  85
  60	  87
  60	  88
  60	  90
  60	  92
  60	  96
  60	  98
  60	 100
  60	 104
  60	 105
  60	 109
  60	 111
  60	 112
  60	 114
  60	 115
  60	 116
  60	 117
  60	 118
  60	 119
  61	  62
  61	  63
  61	  64
  61	  67
  61	  68
  61	  69
  61	  70
  61	  74
  61	  76
  61	  77
  61	  80
  61	  82
  61	  84
  61	  87
  61	  90
  61	  91
  61	  94
  61	  96
  61	  97
  61	  99
  61	 100
  61	 101
  61	 102
  61	 103
  61	 104
  61	 105
  61	 107
  61	 108
  61	 109
  61	 112
  61	 113
  61	 114
  61	 115
  61	 116
  61	 117
  61	 118
  62	  67
  62	  68
  62	  70
  62	  71
  62	  72
  62	  73
  62	  74
  62	  75
  62	  77
  62	  78
  62	  80
  62	  82
  62	  83
  62	  84
  62	  85
  62	  86
  62	  87
  62	  88
  62	  90
  62	  91
  62	  95
  62	  96
  62	  97
  62	 102
  62	 103
  62	 106
  62	 107
  62	 108
  62	 111
  62	 112
  62	 113
  62	 115
  62	 117
  62	 119
  63	  66
  63	  67
  63	  69
  63	  71
  63	  72
  63	  73
  63	  76
  63	  78
  63	  80
  63	  81
  63	  85
  63	  86
  63	  95
  63	 101
  63	 106
  63	 107
  63	 109
  63	 110
  63	 113
  63	 114
  63	 116
  63	 119
  64	  65
  64	  66
  64	  67
  64	  68
  64	  69
  64	  71
  64	  72
  64	  76
  64	  79
  64	  80
  64	  85
  64	  86
  64	  88
  64	  89
  64	  90
  64	  91
  64	  93
  64	  94
  64	  95
  64	  96
  64	  97
  64	  99
  64	 100
  64	 102
  64	 103
  64	 105
  64	 106
  64	 107
  64	 109
  64	 111
  64	 112
  64	 113
  64	 116
  64	 118
  65	  66
  65	  67
  65	  68
  65	  70
  65	  71
  65	  72
  65	  74
  65	  76
  65	  79
  65	  84
  65	  86
  65	  87
  65	  88
  65	  89
  65	  90
  65	  91
  65	  92
  65	  94
  65	  95
  65	  96
  65	  98
  65	  99
  65	 100
  65	 101
  65	 102
  65	 103
  65	 104
  65	 106
  65	 107
  65	 109
  65	 111
  65	 112
  65	 115
  65	 116
  65	 117
  65	 118
  66	  73
  66	  74
  66	  75
  66	  77
  66	  78
  66	  80
  66	  81
  66	  82
  66	  83
  66	  84
  66	  85
  66	  89
  66	  91
  66	  92
  66	  93
  66	  94
  66	  97
  66	  98
  66	 103
  66	 104
  66	 105
  66	 106
  66	 108
  66	 109
  66	 110
  66	 111
  66	 112
  66	 115
  66	 117
  66	 118
  67	  70
  67	  72
  67	  74
  67	  76
  67	  80
  67	  81
  67	  83
  67	  87
  67	  90
  67	  92
  67	  95
  67	  97
  67	 100
  67	 101
  67	 102
  67	 105
  67	 109
  67	 112
  67	 113
  67	 114
  67	 117
  67	 119
  68	  70
  68	  71
  68	  74
  68	  76
  68	  77
  68	  81
  68	  82
  68	  83
  68	  85
  68	  86
  68	  88
  68	  92
  68	  93
  68	  95
  68	  97
  68	 100
  68	 102
  68	 103
  68	 104
  68	 105
  68	 106
  68	 111
  68	 112
  68	 113
  68	 117
  68	 118
  69	  70
  69	  72
  69	  73
  69	  74
  69	  75
  69	  76
  69	  80
  69	  81
  69	  82
  69	  83
  69	  84
  69	  85
  69	  86
  69	  87
  69	  92
  69	  94
  69	  97
  69	  98
  69	  99
  69	 103
  69	 105
  69	 106
  69	 116
  69	 117
  70	  71
  70	  73
  70	  74
  70	  75
  70	  76
  70	  78
  70	  80
  70	  81
  70	  82
  70	  83
  70	  84
  70	  87
  70	  88
  70	  91
  70	  96
  70	  98
  70	  99
  70	 102
  70	 104
  70	 106
  70	 107
  70	 109
  70	 110
  70	 111
  70	 112
  70	 114
  70	 115
  70	 116
  71	  75
  71	  76
  71	  79
  71	  80
  71	  81
  71	  82
  71	  83
  71	  86
  71	  88
  71	  90
  71	  97
  71	  99
  71	 101
  71	 102
  71	 105
  71	 106
  71	 108
  71	 110
  71	 111
  71	 112
  71	 113
  71	 117
  72	  73
  72	  75
  72	  76
  72	  78
  72	  83
  72	  85
  72	  86
  72	  88
  72	  89
  72	  90
  72	  91
  72	  92
  72	  93
  72	  97
  72	 100
  72	 103
  72	 105
  72	 111
  72	 117
  72	 118
  72	 119
  73	  76
  73	  77
  73	  78
  73	  79
  73	  80
  73	  84
  73	  85
  73	  86
  73	  87
  73	  88
  73	  89
  73	  91
  73	  93
  73	  95
  73	  96
  73	  98
  73	 102
  73	 103
  73	 106
  73	 107
  73	 110
  73	 111
  73	 114
  73	 115
  73	 117
  73	 118
  74	  76
  74	  77
  74	  79
  74	  81
  74	  84
  74	  85
  74	  86
  74	  90
  74	  91
  74	  95
  74	  96
  74	  98
  74	  99
  74	 100
  74	 104
  74	 105
  74	 106
  74	 107
  74	 109
  74	 110
  74	 114
  74	 116
  74	 118
  74	 119
  75	  78
  75	  82
  75	  85
  75	  88
  75	  90
  75	  91
  75	  92
  75	  93
  75	  97
  75	 101
  75	 102
  75	 103
  75	 104
  75	 105
  75	 106
  75	 107
  75	 108
  75	 110
  75	 111
  75	 112
  75	 114
  75	 115
  75	 118
  76	  78
  76	  80
  76	  86
  76	  87
  76	  90
  76	  93
  76	  94
  76	  96
  76	 100
  76	 102
  76	 103
  76	 104
  76	 106
  76	 108
  76	 112
  76	 114
  76	 115
  76	 117
  76	 118
  77	  78
  77	  80
  77	  81
  77	  83
  77	  85
  77	  86
  77	  87
  77	  88
  77	  89
  77	  90
  77	  91
  77	  94
  77	  97
  77	  99
  77	 100
  77	 101
  77	 102
  77	 104
  77	 112
  77	 113
  77	 114
  77	 115
  77	 116
  78	  79
  78	  81
  78	  83
  78	  84
  78	  86
  78	  87
  78	  89
  78	  90
  78	  93
  78	  98
  78	 100
  78	 101
  78	 102
  78	 105
  78	 108
  78	 109
  78	 110
  78	 111
  78	 113
  78	 115
  78	 117
  78	 119
  79	  80
  79	  81
  79	  82
  79	  83
  79	  84
  79	  86
  79	  87
  79	  88
  79	  90
  79	  93
  79	  94
  79	  97
  79	 100
  79	 104
  79	 106
  79	 107
  79	 115
  79	 118
  80	  83
  80	  85
  80	  86
  80	  87
  80	  89
  80	  93
  80	  94
  80	  96
  80	  97
  80	  98
  80	  99
  80	 102
  80	 107
  80	 109
  80	 110
  80	 113
  80	 115
  80	 116
  81	  85
  81	  90
  81	  91
  81	  93
  81	  94
  81	  98
  81	 100
  81	 105
  81	 106
  81	 107
  81	 108
  81	 110
  81	 111
  81	 112
  81	 114
  81	 116
  81	 117
  81	 119
  82	  84
  82	  85
  82	  87
  82	  88
  82	  91
  82	  92
  82	  94
  82	  95
  82	  96
  82	 101
  82	 102
  82	 103
  82	 104
  82	 105
  82	 106
  82	 108
  82	 111
  82	 113
  82	 114
  82	 115
  82	 117
  82	 119
  83	  86
  83	  90
  83	  91
  83	  92
  83	  93
  83	  94
  83	  97
  83	  99
  83	 102
  83	 105
  83	 107
  83	 108
  83	 111
  83	 114
  83	 115
  83	 116
  83	 118
  83	 119
  84	  86
  84	  89
  84	  90
  84	  92
  84	  93
  84	  94
  84	  95
  84	  96
  84	  98
  84	  99
  84	 100
  84	 101
  84	 103
  84	 105
  84	 107
  84	 108
  84	 109
  84	 110
  84	 112
  84	 113
  84	 118
  84	 119
  85	  95
  85	  96
  85	  97
  85	 100
  85	 101
  85	 107
  85	 108
  85	 109
  85	 111
  85	 112
  85	 113
  85	 114
  85	 115
  85	 117
  86	  94
  86	  97
  86	  99
  86	 101
  86	 104
  86	 111
  86	 112
  86	 114
  86	 115
  86	 117
  86	 119
  87	  91
  87	  95
  87	  97
  87	 100
  87	 101
  87	 102
  87	 111
  87	 113
  87	 114
  87	 116
  87	 118
  87	 119
  88	  89
  88	  91
  88	  94
  88	  95
  88	  96
  88	  97
  88	  99
  88	 100
  88	 101
  88	 103
  88	 104
  88	 105
  88	 109
  88	 115
  88	 118
  88	 119
  89	  90
  89	  91
  89	  94
  89	  96
  89	  97
  89	  99
  89	 101
  89	 102
  89	 103
  89	 107
  89	 108
  89	 112
  89	 115
  89	 116
  89	 118
  89	 119
  90	  91
  90	  93
  90	  94
  90	  97
  90	  98
  90	 101
  90	 103
  90	 104
  90	 109
  90	 110
  90	 113
  90	 114
  90	 116
  90	 117
  90	 119
  91	  92
  91	  94
  91	  96
  91	  99
  91	 103
  91	 104
  91	 111
  91	 114
  91	 118
  91	 119
  92	  94
  92	  97
  92	 102
  92	 104
  92	 107
  92	 112
  92	 114
  92	 116
  92	 118
  93	  94
  93	  95
  93	  97
  93	  98
  93	 103
  93	 104
  93	 110
  93	 111
  93	 113
  93	 114
  93	 116
  93	 117
  94	  96
  94	  97
  94	  98
  94	  99
  94	 100
  94	 102
  94	 103
  94	 104
  94	 105
  94	 106
  94	 107
  94	 113
  94	 115
  94	 118
  95	  99
  95	 101
  95	 103
  95	 106
  95	 107
  95	 108
  95	 109
  95	 110
  95	 111
  95	 112
  95	 115
  95	 116
  95	 118
  96	  98
  96	  99
  96	 108
  96	 110
  96	 111
  96	 114
  96	 116
  96	 117
  96	 118
  96	 119
  97	  98
  97	 103
  97	 104
  97	 105
  97	 111
  97	 112
  97	 113
  97	 116
  97	 117
  97	 118
  98	  99
  98	 100
  98	 103
  98	 104
  98	 105
  98	 110
  98	 112
  98	 113
  98	 116
  98	 118
  98	 119
  99	 102
  99	 107
  99	 110
  99	 113
  99	 118
  99	 119
 100	 101
 100	 102
 100	 106
 100	 107
 100	 108
 100	 111
 100	 112
 100	 113
 100	 114
 100	 116
 100	 118
 101	 102
 101	 103
 101	 107
 101	 108
 101	 111
 101	 113
 101	 114
 101	 115
 101	 116
 102	 103
 102	 104
 102	 107
 102	 108
 102	 110
 102	 111
 102	 113
 102	 114
 102	 115
 102	 116
 102	 118
 102	 119
 103	 104
 103	 105
 103	 107
 103	 108
 103	 109
 103	 110
 103	 114
 103	 115
 103	 117
 103	 118
 104	 105
 104	 106
 104	 107
 104	 108
 104	 109
 104	 111
 104	 112
 104	 114
 104	 118
 105	 106
 105	 107
 105	 108
 105	 110
 105	 113
 105	 115
 106	 114
 106	 115
 106	 117
 106	 118
 106	 119
 107	 109
 107	 110
 107	 113
 107	 114
 107	 115
 107	 118
 108	 109
 108	 114
 108	 118
 108	 119
 109	 110
 109	 111
 109	 113
 109	 114
 109	 117
 109	 119
 110	 114
 110	 119
 111	 112
 111	 113
 111	 115
 111	 116
 111	 117
 111	 118
 111	 119
 112	 114
 112	 116
 112	 118
 112	 119
 113	 115
 113	 117
 113	 119
 114	 117
 114	 118
 115	 116
 115	 117
 115	 118
 116	 117
 116	 118
 117	 118
 118	 119
;
